(set-info :source |printed by MathSAT|)
(declare-fun call_Sofar._Y_ () Bool)
(declare-fun Total () Int)
(declare-fun call_Store.ite () Int)
(declare-fun call_Store.Total () Int)
(declare-fun call_Store.ite2 () Int)
(declare-fun call_Store.Prev () Int)
(declare-fun _OK_ () Bool)
(declare-fun param_Delta () Int)
(declare-fun call_Store.flby () Int)
(declare-fun call_Sofar.flby () Bool)
(define-fun .def_202 () Bool (= call_Store.flby 0))
(define-fun .def_203 () Bool (and call_Sofar.flby .def_202))
(define-fun .def_196 () Bool (<= param_Delta 1))
(define-fun .def_195 () Bool (<= (- 1) param_Delta))
(define-fun .def_197 () Bool (and .def_195 .def_196))
(define-fun .def_199 () Bool (or .def_197 call_Sofar.flby))
(define-fun .def_200 () Bool (= call_Sofar._Y_ .def_199))
(define-fun .def_193 () Bool (= call_Store.Prev call_Store.flby))
(define-fun .def_190 () Bool (= call_Store.Total call_Store.ite2))
(define-fun .def_186 () Bool (= call_Store.ite call_Store.ite2))
(define-fun .def_173 () Bool (<= call_Store.Prev 0))
(define-fun .def_174 () Bool (not .def_173))
(define-fun .def_171 () Bool (<= 0 param_Delta))
(define-fun .def_172 () Bool (not .def_171))
(define-fun .def_175 () Bool (or .def_172 .def_174))
(define-fun .def_187 () Bool (or .def_175 .def_186))
(define-fun .def_178 () Int (* (- 1) call_Store.ite2))
(define-fun .def_181 () Int (+ param_Delta .def_178))
(define-fun .def_182 () Int (+ call_Store.Prev .def_181))
(define-fun .def_183 () Bool (= .def_182 0))
(define-fun .def_176 () Bool (not .def_175))
(define-fun .def_184 () Bool (or .def_176 .def_183))
(define-fun .def_164 () Int (* (- 1) param_Delta))
(define-fun .def_165 () Int (* (- 1) call_Store.Prev))
(define-fun .def_166 () Int (+ .def_165 .def_164))
(define-fun .def_167 () Int (+ call_Store.ite .def_166))
(define-fun .def_168 () Bool (= .def_167 0))
(define-fun .def_156 () Bool (<= 10 call_Store.Prev))
(define-fun .def_157 () Bool (not .def_156))
(define-fun .def_154 () Bool (<= param_Delta 0))
(define-fun .def_155 () Bool (not .def_154))
(define-fun .def_158 () Bool (and .def_155 .def_157))
(define-fun .def_160 () Bool (not .def_158))
(define-fun .def_169 () Bool (or .def_160 .def_168))
(define-fun .def_152 () Bool (= call_Store.ite call_Store.Prev))
(define-fun .def_159 () Bool (or .def_152 .def_158))
(define-fun .def_170 () Bool (and .def_159 .def_169))
(define-fun .def_185 () Bool (and .def_170 .def_184))
(define-fun .def_188 () Bool (and .def_185 .def_187))
(define-fun .def_148 () Bool (= Total call_Store.Total))
(define-fun .def_143 () Bool (<= Total 20))
(define-fun .def_142 () Bool (<= 0 Total))
(define-fun .def_144 () Bool (and .def_142 .def_143))
(define-fun .def_140 () Bool (not call_Sofar._Y_))
(define-fun .def_145 () Bool (or .def_140 .def_144))
(define-fun .def_146 () Bool (= _OK_ .def_145))
(define-fun .def_149 () Bool (and .def_146 .def_148))
(define-fun .def_189 () Bool (and .def_149 .def_188))
(define-fun .def_191 () Bool (and .def_189 .def_190))
(define-fun .def_194 () Bool (and .def_191 .def_193))
(define-fun .def_201 () Bool (and .def_194 .def_200))
(define-fun .def_204 () Bool (and .def_201 .def_203))
(assert .def_204)
